# Solution for model simple
# Objective value = 0
x[0,0] 0
x[0,1] 0
x[0,2] 1
x[0,3] 0
x[0,4] 0
x[0,5] 0
x[0,6] 0
x[0,7] 0
x[1,0] 0
x[1,1] 0
x[1,2] 1
x[1,3] 0
x[1,4] 0
x[1,5] 0
x[1,6] 0
x[1,7] 0
x[2,0] 0
x[2,1] 1
x[2,2] 0
x[2,3] 0
x[2,4] 0
x[2,5] 0
x[2,6] 0
x[2,7] 0
x[3,0] 0
x[3,1] 1
x[3,2] 0
x[3,3] 0
x[3,4] 0
x[3,5] 0
x[3,6] 0
x[3,7] 0
x[4,0] 1
x[4,1] 0
x[4,2] 0
x[4,3] 0
x[4,4] 0
x[4,5] 0
x[4,6] 0
x[4,7] 0
x[5,0] 0
x[5,1] 1
x[5,2] 0
x[5,3] 0
x[5,4] 0
x[5,5] 0
x[5,6] 0
x[5,7] 0
x[6,0] 1
x[6,1] 0
x[6,2] 0
x[6,3] 0
x[6,4] 0
x[6,5] 0
x[6,6] 0
x[6,7] 0
x[7,0] 1
x[7,1] 0
x[7,2] 0
x[7,3] 0
x[7,4] 0
x[7,5] 0
x[7,6] 0
x[7,7] 0
x[8,0] 0
x[8,1] 0
x[8,2] 0
x[8,3] 0
x[8,4] 1
x[8,5] 0
x[8,6] 0
x[8,7] 0
x[9,0] 0
x[9,1] 0
x[9,2] 0
x[9,3] 1
x[9,4] 0
x[9,5] 0
x[9,6] 0
x[9,7] 0
x[10,0] 0
x[10,1] 0
x[10,2] 0
x[10,3] 0
x[10,4] 0
x[10,5] 1
x[10,6] 0
x[10,7] 0
x[11,0] 0
x[11,1] 0
x[11,2] 0
x[11,3] 0
x[11,4] 0
x[11,5] 1
x[11,6] 0
x[11,7] 0
x[12,0] 0
x[12,1] 0
x[12,2] 0
x[12,3] 0
x[12,4] 0
x[12,5] 1
x[12,6] 0
x[12,7] 0
x[13,0] 0
x[13,1] 0
x[13,2] 0
x[13,3] 0
x[13,4] 0
x[13,5] 1
x[13,6] 0
x[13,7] 0
x[14,0] 0
x[14,1] 0
x[14,2] 0
x[14,3] 0
x[14,4] 1
x[14,5] 0
x[14,6] 0
x[14,7] 0
x[15,0] 0
x[15,1] 0
x[15,2] 0
x[15,3] 1
x[15,4] 0
x[15,5] 0
x[15,6] 0
x[15,7] 0
x[16,0] 0
x[16,1] 0
x[16,2] 1
x[16,3] 0
x[16,4] 0
x[16,5] 0
x[16,6] 0
x[16,7] 0
x[17,0] 1
x[17,1] 0
x[17,2] 0
x[17,3] 0
x[17,4] 0
x[17,5] 0
x[17,6] 0
x[17,7] 0
x[18,0] 0
x[18,1] 0
x[18,2] 1
x[18,3] 0
x[18,4] 0
x[18,5] 0
x[18,6] 0
x[18,7] 0
x[19,0] 0
x[19,1] 1
x[19,2] 0
x[19,3] 0
x[19,4] 0
x[19,5] 0
x[19,6] 0
x[19,7] 0
x[20,0] 0
x[20,1] 0
x[20,2] 0
x[20,3] 0
x[20,4] 1
x[20,5] 0
x[20,6] 0
x[20,7] 0
x[21,0] 0
x[21,1] 0
x[21,2] 0
x[21,3] 0
x[21,4] 1
x[21,5] 0
x[21,6] 0
x[21,7] 0
x[22,0] 0
x[22,1] 0
x[22,2] 0
x[22,3] 1
x[22,4] 0
x[22,5] 0
x[22,6] 0
x[22,7] 0
x[23,0] 0
x[23,1] 0
x[23,2] 0
x[23,3] 1
x[23,4] 0
x[23,5] 0
x[23,6] 0
x[23,7] 0
x[24,0] 0
x[24,1] 0
x[24,2] 0
x[24,3] 0
x[24,4] 0
x[24,5] 0
x[24,6] 1
x[24,7] 0
x[25,0] 0
x[25,1] 0
x[25,2] 0
x[25,3] 0
x[25,4] 0
x[25,5] 0
x[25,6] 1
x[25,7] 0
x[26,0] 0
x[26,1] 0
x[26,2] 0
x[26,3] 0
x[26,4] 0
x[26,5] 0
x[26,6] 1
x[26,7] 0
x[27,0] 0
x[27,1] 0
x[27,2] 0
x[27,3] 0
x[27,4] 0
x[27,5] 0
x[27,6] 0
x[27,7] 1
x[28,0] 0
x[28,1] 0
x[28,2] 0
x[28,3] 0
x[28,4] 0
x[28,5] 0
x[28,6] 1
x[28,7] 0
x[29,0] 0
x[29,1] 0
x[29,2] 0
x[29,3] 0
x[29,4] 0
x[29,5] 0
x[29,6] 0
x[29,7] 1
x[30,0] 0
x[30,1] 0
x[30,2] 0
x[30,3] 0
x[30,4] 0
x[30,5] 0
x[30,6] 0
x[30,7] 1
x[31,0] 0
x[31,1] 0
x[31,2] 0
x[31,3] 0
x[31,4] 0
x[31,5] 0
x[31,6] 0
x[31,7] 1
y[0,0,0] 0
y[0,0,1] 0
y[0,0,2] 0
y[0,0,3] 0
y[0,1,0] 0
y[0,1,1] 0
y[0,1,2] 1
y[0,1,3] 0
y[1,0,0] 0
y[1,0,1] 0
y[1,0,2] 0
y[1,0,3] 0
y[1,1,0] 0
y[1,1,1] 0
y[1,1,2] 0
y[1,1,3] 1
y[2,0,0] 0
y[2,0,1] 1
y[2,0,2] 0
y[2,0,3] 0
y[2,1,0] 0
y[2,1,1] 0
y[2,1,2] 0
y[2,1,3] 0
y[3,0,0] 0
y[3,0,1] 0
y[3,0,2] 0
y[3,0,3] 1
y[3,1,0] 0
y[3,1,1] 0
y[3,1,2] 0
y[3,1,3] 0
y[4,0,0] 1
y[4,0,1] 0
y[4,0,2] 0
y[4,0,3] 0
y[4,1,0] 0
y[4,1,1] 0
y[4,1,2] 0
y[4,1,3] 0
y[5,0,0] 0
y[5,0,1] 0
y[5,0,2] 0
y[5,0,3] 0
y[5,1,0] 0
y[5,1,1] 1
y[5,1,2] 0
y[5,1,3] 0
y[6,0,0] 0
y[6,0,1] 0
y[6,0,2] 0
y[6,0,3] 0
y[6,1,0] 1
y[6,1,1] 0
y[6,1,2] 0
y[6,1,3] 0
y[7,0,0] 0
y[7,0,1] 0
y[7,0,2] 1
y[7,0,3] 0
y[7,1,0] 0
y[7,1,1] 0
y[7,1,2] 0
y[7,1,3] 0
w[0,0] 0
w[0,1] 0
w[0,2] 1
w[0,3] 1
w[0,4] 0
w[0,5] 0
w[0,6] 0
w[0,7] 1
w[1,0] 0
w[1,1] 0
w[1,2] 1
w[1,3] 0
w[1,4] 0
w[1,5] 0
w[1,6] 0
w[1,7] 1
w[2,0] 1
w[2,1] 1
w[2,2] 0
w[2,3] 0
w[2,4] 0
w[2,5] 1
w[2,6] 0
w[2,7] 0
w[3,0] 0
w[3,1] 1
w[3,2] 1
w[3,3] 0
w[3,4] 0
w[3,5] 0
w[3,6] 0
w[3,7] 1
w[4,0] 1
w[4,1] 1
w[4,2] 0
w[4,3] 0
w[4,4] 0
w[4,5] 0
w[4,6] 0
w[4,7] 0
w[5,0] 1
w[5,1] 1
w[5,2] 0
w[5,3] 0
w[5,4] 1
w[5,5] 0
w[5,6] 0
w[5,7] 0
w[6,0] 1
w[6,1] 0
w[6,2] 0
w[6,3] 1
w[6,4] 1
w[6,5] 0
w[6,6] 0
w[6,7] 0
w[7,0] 1
w[7,1] 0
w[7,2] 0
w[7,3] 1
w[7,4] 0
w[7,5] 0
w[7,6] 1
w[7,7] 0
w[8,0] 0
w[8,1] 0
w[8,2] 0
w[8,3] 1
w[8,4] 1
w[8,5] 0
w[8,6] 0
w[8,7] 0
w[9,0] 0
w[9,1] 0
w[9,2] 0
w[9,3] 1
w[9,4] 0
w[9,5] 0
w[9,6] 1
w[9,7] 0
w[10,0] 0
w[10,1] 0
w[10,2] 0
w[10,3] 0
w[10,4] 0
w[10,5] 1
w[10,6] 1
w[10,7] 0
w[11,0] 0
w[11,1] 0
w[11,2] 0
w[11,3] 0
w[11,4] 0
w[11,5] 1
w[11,6] 1
w[11,7] 0
w[12,0] 0
w[12,1] 0
w[12,2] 0
w[12,3] 0
w[12,4] 0
w[12,5] 1
w[12,6] 0
w[12,7] 1
w[13,0] 0
w[13,1] 0
w[13,2] 0
w[13,3] 0
w[13,4] 0
w[13,5] 1
w[13,6] 1
w[13,7] 0
w[14,0] 0
w[14,1] 0
w[14,2] 0
w[14,3] 0
w[14,4] 1
w[14,5] 0
w[14,6] 0
w[14,7] 1
w[15,0] 0
w[15,1] 0
w[15,2] 0
w[15,3] 0
w[15,4] 0
w[15,5] 0
w[15,6] 0
w[15,7] 0
w[16,0] 0
w[16,1] 0
w[16,2] 0
w[16,3] 0
w[16,4] 0
w[16,5] 0
w[16,6] 0
w[16,7] 0
w[17,0] 0
w[17,1] 0
w[17,2] 0
w[17,3] 0
w[17,4] 0
w[17,5] 0
w[17,6] 0
w[17,7] 1
w[18,0] 0
w[18,1] 0
w[18,2] 0
w[18,3] 0
w[18,4] 0
w[18,5] 1
w[18,6] 0
w[18,7] 0
w[19,0] 1
w[19,1] 0
w[19,2] 1
w[19,3] 0
w[19,4] 0
w[19,5] 0
w[19,6] 0
w[19,7] 0
bb[0] 1
bb[1] 0
bb[2] 1
bb[3] 1
bb[4] 0
bb[5] 0
bb[6] 1
bb[7] 0
z 0
